/* Objective function */
min: +820 C1 +810 C2 +840 C3 +960 C4 +820 C6 +810 C7 +840 C8 +960 C9 +800 C11 +870 C12 +1000 C13 +920 C14
 +800 C16 +870 C17 +1000 C18 +920 C19 +740 C21 +900 C22 +810 C23 +840 C24 +1000 C25;

/* Constraints */
+C1 +C2 +C3 +C4 +C5 = 1;
+C6 +C7 +C8 +C9 +C10 = 1;
+C11 +C12 +C13 +C14 +C15 = 1;
+C16 +C17 +C18 +C19 +C20 = 1;
+C21 +C22 +C23 +C24 +C25 = 1;
+C1 +C6 +C11 +C16 +C21 = 1;
+C2 +C7 +C12 +C17 +C22 = 1;
+C3 +C8 +C13 +C18 +C23 = 1;
+C4 +C9 +C14 +C19 +C24 = 1;
+C5 +C10 +C15 +C20 +C25 = 1;
